true false true
presolving:
presolving (0 rounds: 0 fast, 0 medium, 0 exhaustive):
 0 deleted vars, 0 deleted constraints, 0 added constraints, 0 tightened bounds, 0 added holes, 0 changed sides, 0 changed coefficients
 0 implications, 0 cliques
presolved problem has 30 variables (30 bin, 0 int, 0 impl, 0 cont) and 24 constraints
     24 constraints of type <linear>
transformed objective value is always integral (scale: 1)
Presolving Time: 0.00

 time | node  | left  |LP iter|LP it/n|mem/heur|mdpt |vars |cons |rows |cuts |sepa|confs|strbr|  dualbound   | primalbound  |  gap   | compl. 
p 0.0s|     1 |     0 |     0 |     - |shiftand|   0 |  30 |  24 |  24 |   0 |  0 |   0 |   0 |      --      | 6.000000e+00 |    Inf | unknown
 time | node  | left  |LP iter|LP it/n|mem/heur|mdpt |vars |cons |rows |cuts |sepa|confs|strbr|  dualbound   | primalbound  |  gap   | compl. 
  0.0s|     1 |     0 |    17 |     - |  1025k |   0 | 125 |  24 |  24 |   0 |  0 |   0 |   0 |-3.900000e+01 | 6.000000e+00 |    Inf | unknown
 time | node  | left  |LP iter|LP it/n|mem/heur|mdpt |vars |cons |rows |cuts |sepa|confs|strbr|  dualbound   | primalbound  |  gap   | compl. 
  1.6s|     1 |     0 |   122 |     - |  2739k |   0 | 653 |  24 |  24 |   0 |  0 |   0 |   0 | 5.000000e+00 | 6.000000e+00 |  20.00%| unknown
 time | node  | left  |LP iter|LP it/n|mem/heur|mdpt |vars |cons |rows |cuts |sepa|confs|strbr|  dualbound   | primalbound  |  gap   | compl. 
  1.7s|     1 |     2 |   298 |     - |  2874k |   0 | 653 |  24 |  24 |   0 |  1 |   0 |   0 | 5.000000e+00 | 6.000000e+00 |  20.00%| unknown
 time | node  | left  |LP iter|LP it/n|mem/heur|mdpt |vars |cons |rows |cuts |sepa|confs|strbr|  dualbound   | primalbound  |  gap   | compl. 
  1.7s|     2 |     3 |   302 |   4.0 |  2941k |   1 | 653 |  24 |  24 |   0 |  1 |   0 |   0 | 5.000000e+00 | 6.000000e+00 |  20.00%| unknown
 time | node  | left  |LP iter|LP it/n|mem/heur|mdpt |vars |cons |rows |cuts |sepa|confs|strbr|  dualbound   | primalbound  |  gap   | compl. 
  1.7s|     3 |     4 |   309 |   5.5 |  2945k |   2 | 653 |  24 |  24 |   0 |  1 |   0 |   0 | 5.000000e+00 | 6.000000e+00 |  20.00%| unknown
 time | node  | left  |LP iter|LP it/n|mem/heur|mdpt |vars |cons |rows |cuts |sepa|confs|strbr|  dualbound   | primalbound  |  gap   | compl. 
  1.7s|     4 |     5 |   332 |  11.3 |  2949k |   3 | 653 |  24 |  24 |   0 |  1 |   0 |   0 | 5.000000e+00 | 6.000000e+00 |  20.00%| unknown
 time | node  | left  |LP iter|LP it/n|mem/heur|mdpt |vars |cons |rows |cuts |sepa|confs|strbr|  dualbound   | primalbound  |  gap   | compl. 
  1.7s|     5 |     6 |   339 |  10.2 |  3034k |   3 | 653 |  24 |  24 |   0 |  1 |   0 |   0 | 5.000000e+00 | 6.000000e+00 |  20.00%| unknown
 time | node  | left  |LP iter|LP it/n|mem/heur|mdpt |vars |cons |rows |cuts |sepa|confs|strbr|  dualbound   | primalbound  |  gap   | compl. 
  1.7s|     6 |     7 |   370 |  14.4 |  3042k |   4 | 653 |  24 |  24 |   0 |  1 |   0 |   0 | 5.000000e+00 | 6.000000e+00 |  20.00%| unknown
 time | node  | left  |LP iter|LP it/n|mem/heur|mdpt |vars |cons |rows |cuts |sepa|confs|strbr|  dualbound   | primalbound  |  gap   | compl. 
  1.7s|     7 |     8 |   491 |  32.2 |  3085k |   4 | 653 |  24 |  24 |   0 |  1 |   0 |   0 | 5.000000e+00 | 6.000000e+00 |  20.00%| unknown
 time | node  | left  |LP iter|LP it/n|mem/heur|mdpt |vars |cons |rows |cuts |sepa|confs|strbr|  dualbound   | primalbound  |  gap   | compl. 
  1.7s|     8 |     9 |   506 |  29.7 |  3291k |   4 | 653 |  24 |  24 |   0 |  1 |   0 |   0 | 5.000000e+00 | 6.000000e+00 |  20.00%| unknown
 time | node  | left  |LP iter|LP it/n|mem/heur|mdpt |vars |cons |rows |cuts |sepa|confs|strbr|  dualbound   | primalbound  |  gap   | compl. 
  1.8s|     9 |    10 |   516 |  27.2 |  3307k |   4 | 653 |  24 |  24 |   0 |  1 |   0 |   0 | 5.000000e+00 | 6.000000e+00 |  20.00%| unknown
 time | node  | left  |LP iter|LP it/n|mem/heur|mdpt |vars |cons |rows |cuts |sepa|confs|strbr|  dualbound   | primalbound  |  gap   | compl. 
  1.8s|    10 |    11 |   524 |  25.1 |  3309k |   4 | 653 |  24 |  24 |   0 |  1 |   0 |   0 | 5.000000e+00 | 6.000000e+00 |  20.00%| unknown
 time | node  | left  |LP iter|LP it/n|mem/heur|mdpt |vars |cons |rows |cuts |sepa|confs|strbr|  dualbound   | primalbound  |  gap   | compl. 
  1.8s|    11 |    12 |   526 |  22.8 |  3314k |   4 | 653 |  24 |  24 |   0 |  1 |   0 |   0 | 5.000000e+00 | 6.000000e+00 |  20.00%| unknown
 time | node  | left  |LP iter|LP it/n|mem/heur|mdpt |vars |cons |rows |cuts |sepa|confs|strbr|  dualbound   | primalbound  |  gap   | compl. 
  1.8s|    12 |    13 |   535 |  21.5 |  3315k |   4 | 653 |  24 |  24 |   0 |  1 |   0 |   0 | 5.000000e+00 | 6.000000e+00 |  20.00%| unknown
 time | node  | left  |LP iter|LP it/n|mem/heur|mdpt |vars |cons |rows |cuts |sepa|confs|strbr|  dualbound   | primalbound  |  gap   | compl. 
  1.8s|    13 |    14 |   558 |  21.7 |  3340k |   4 | 653 |  24 |  24 |   0 |  1 |   0 |   0 | 5.000000e+00 | 6.000000e+00 |  20.00%| unknown
 time | node  | left  |LP iter|LP it/n|mem/heur|mdpt |vars |cons |rows |cuts |sepa|confs|strbr|  dualbound   | primalbound  |  gap   | compl. 
  1.9s|    14 |    15 |   620 |  24.8 |  3344k |   4 | 653 |  24 |  24 |   0 |  1 |   0 |   0 | 5.000000e+00 | 6.000000e+00 |  20.00%| unknown
 time | node  | left  |LP iter|LP it/n|mem/heur|mdpt |vars |cons |rows |cuts |sepa|confs|strbr|  dualbound   | primalbound  |  gap   | compl. 
  1.9s|    15 |    16 |   683 |  27.5 |  3398k |   4 | 653 |  24 |  24 |   0 |  1 |   0 |   0 | 5.000000e+00 | 6.000000e+00 |  20.00%| unknown
 time | node  | left  |LP iter|LP it/n|mem/heur|mdpt |vars |cons |rows |cuts |sepa|confs|strbr|  dualbound   | primalbound  |  gap   | compl. 
  1.9s|    16 |    17 |   707 |  27.3 |  3401k |   4 | 653 |  24 |  24 |   0 |  1 |   0 |   0 | 5.000000e+00 | 6.000000e+00 |  20.00%| unknown
 time | node  | left  |LP iter|LP it/n|mem/heur|mdpt |vars |cons |rows |cuts |sepa|confs|strbr|  dualbound   | primalbound  |  gap   | compl. 
  1.9s|    17 |    18 |   738 |  27.5 |  3729k |   5 | 724 |  24 |  24 |   0 |  1 |   0 |   0 | 5.000000e+00 | 6.000000e+00 |  20.00%| unknown
 time | node  | left  |LP iter|LP it/n|mem/heur|mdpt |vars |cons |rows |cuts |sepa|confs|strbr|  dualbound   | primalbound  |  gap   | compl. 
  2.0s|    18 |    19 |   742 |  26.1 |  3733k |   6 | 724 |  24 |  24 |   0 |  1 |   0 |   0 | 5.000000e+00 | 6.000000e+00 |  20.00%| unknown
 time | node  | left  |LP iter|LP it/n|mem/heur|mdpt |vars |cons |rows |cuts |sepa|confs|strbr|  dualbound   | primalbound  |  gap   | compl. 
r 2.0s|    19 |     0 |   744 |  24.8 |simplero|   6 | 724 |  24 |  24 |   0 |  0 |   0 |   0 | 5.000000e+00 | 5.000000e+00 |   0.00%|  99.43%

SCIP Status        : problem is solved [optimal solution found]
Solving Time (sec) : 1.99
Solving Nodes      : 19
Primal Bound       : +5.00000000000000e+00 (2 solutions)
Dual Bound         : +5.00000000000000e+00
Gap                : 0.00 %
Running with parallel: True bidir: False symbreak: True
Number of Nodes:  24
45.78269675925926% holds
starting cheapest insertion heuristic
Heuristic without TSP improvement:  6
Heuristic without TSP improvement time:  0.1
Heuristic Sol:  6
Heuristic total time:  0.1
[[0, 20, 19, 2, 8, 10, 21, 9], [15, 13, 6, 14, 17, 3, 5], [7, 12, 1, 4], [16, 18, 11], [23], [22]]
Instance path:  /home/htc/mghannam/SCRATCH/lccp-rust/data/t62_gr24.npcc
Timelimit:  7200
Heuristic without TSP improvement:  6
Heuristic without TSP improvement time:  0.1
Heuristic Sol:  6
Heuristic total time:  0.1
at 1 zero_duals: 18
Switching to elementary pricing
at1, LP obj: 6.0 n_added_paths: 95
updated lowerbound from -1e+20 to -39
at 1 zero_duals: 14
at1, LP obj: 6.0 n_added_paths: 18
at 1 zero_duals: 14
at1, LP obj: 6.0 n_added_paths: 41
at 1 zero_duals: 7
at1, LP obj: 5.583333333333334 n_added_paths: 120
at 1 zero_duals: 4
Switching to elementary pricing
at1, LP obj: 5.052631578947368 n_added_paths: 282
at 1 zero_duals: 4
Switching to elementary pricing
at1, LP obj: 4.451612903225807 n_added_paths: 65
updated lowerbound from 1.0 to 2
at 1 zero_duals: 6
Switching to elementary pricing
at1, LP obj: 4.444444444444445 n_added_paths: 2
updated lowerbound from 2.0 to 5
Gap too small = 0, stopping pricing with lb = 5
Gap too small = 0, stopping pricing with lb = 5
Gap too small = 0, stopping pricing with lb = 5
Gap too small = 0, stopping pricing with lb = 5
Gap too small = 0, stopping pricing with lb = 5
Gap too small = 0, stopping pricing with lb = 5
Gap too small = 0, stopping pricing with lb = 5
Gap too small = 0, stopping pricing with lb = 5
Gap too small = 0, stopping pricing with lb = 5
Gap too small = 0, stopping pricing with lb = 5
Gap too small = 0, stopping pricing with lb = 5
Gap too small = 0, stopping pricing with lb = 5
Gap too small = 0, stopping pricing with lb = 5
Gap too small = 0, stopping pricing with lb = 5
Gap too small = 0, stopping pricing with lb = 5
Gap too small = 0, stopping pricing with lb = 5
at 27 zero_duals: 15
Switching to elementary pricing
at27, LP obj: 6.0 n_added_paths: 71
Gap too small = 0, stopping pricing with lb = 5
Gap too small = 0, stopping pricing with lb = 5
Gap too small = 0, stopping pricing with lb = 5
Best solution found:
[23, 21, 18, 23] 1.0 1.0
checking cycle [23, 21, 18, 23]
[23, 21, 18, 23] 216 194
[22, 1, 12, 22] 1.0 1.0
checking cycle [22, 1, 12, 22]
[22, 1, 12, 22] 335 174
[17, 15, 5, 13, 7, 6, 17] 1.0 1.0
checking cycle [17, 15, 5, 13, 7, 6, 17]
[17, 15, 5, 13, 7, 6, 17] 419 406
[20, 19, 2, 16, 11, 0, 9, 20] 1.0 1.0
checking cycle [20, 19, 2, 16, 11, 0, 9, 20]
[20, 19, 2, 16, 11, 0, 9, 20] 357 350
[14, 3, 8, 10, 4, 14] 1.0 1.0
checking cycle [14, 3, 8, 10, 4, 14]
[14, 3, 8, 10, 4, 14] 486 358
